(set-option :smt.auto-config false)
(set-option :smt.mbqi false)
(set-option :sat.random_seed 488)
(set-option :smt.random_seed 599)
(set-option :nlsat.seed 611)
(set-option :memory_max_size 6000)
(declare-sort U 0)
(declare-sort RegExStr 0)
(declare-sort RMode 0)
(declare-fun f (U) Int)
(declare-fun g (U) Int)
(declare-fun P (U) Bool)
(assert (! (forall ((x0py0 U)) (! (not (P x0py0)) :pattern ((f x0py0)) )) :named A0))
(assert (! (forall ((x1py0 U)) (! (P x1py0) :pattern ((g x1py0)) )) :named A1))
(check-sat)
(get-info :reason-unknown)
